546.0 141.0
545.9 141.02
545.8 141.05
545.7 141.07
545.6 141.1
545.5 141.12
545.4 141.14
545.3 141.17
545.2 141.19
545.1 141.22
545.0 141.24
544.9 141.26
544.8 141.29
544.7 141.31
544.6 141.34
544.5 141.36
544.4 141.38
544.3 141.41
544.2 141.43
544.1 141.46
544.0 141.48
543.9 141.51
543.8 141.53
543.7 141.55
543.6 141.58
543.5 141.6
543.4 141.63
543.3 141.65
543.2 141.67
543.1 141.7
543.0 141.72
542.9 141.75
542.8 141.77
542.7 141.79
542.6 141.82
542.5 141.84
542.4 141.87
542.3 141.89
542.2 141.91
542.1 141.94
542.0 141.96
541.9 141.99
541.8 142.01
541.7 142.03
541.6 142.06
541.5 142.08
541.4 142.11
541.3 142.13
541.2 142.15
541.1 142.18
541.0 142.2
540.9 142.23
540.8 142.25
540.7 142.28
540.6 142.3
540.5 142.32
540.4 142.35
540.3 142.37
540.2 142.4
540.1 142.42
540.0 142.44
539.9 142.47
539.8 142.49
539.7 142.52
539.6 142.54
539.5 142.56
539.4 142.59
539.3 142.61
539.2 142.64
539.1 142.66
539.0 142.68
538.9 142.71
538.8 142.73
538.7 142.76
538.6 142.78
538.5 142.8
538.4 142.83
538.3 142.85
538.2 142.88
538.1 142.9
538.0 142.92
537.9 142.95
537.8 142.97
537.7 143.0
537.6 143.02
537.5 143.05
537.4 143.07
537.3 143.09
537.2 143.12
537.1 143.14
537.0 143.17
536.9 143.19
536.8 143.21
536.7 143.24
536.6 143.26
536.5 143.29
536.4 143.31
536.3 143.33
536.2 143.36
536.1 143.38
536.0 143.41
535.9 143.43
535.8 143.45
535.7 143.48
535.6 143.5
535.5 143.53
535.4 143.55
535.3 143.57
535.2 143.6
535.1 143.62
535.0 143.65
534.9 143.67
534.8 143.69
534.7 143.72
534.6 143.74
534.5 143.77
534.4 143.79
534.3 143.82
534.2 143.84
534.1 143.86
534.0 143.89
533.9 143.91
533.8 143.94
533.7 143.96
533.6 143.98
533.5 144.01
533.4 144.03
533.3 144.06
533.2 144.08
533.1 144.1
533.0 144.13
532.9 144.15
532.8 144.18
532.7 144.2
532.6 144.22
532.5 144.25
532.4 144.27
532.3 144.3
532.2 144.32
532.1 144.34
532.0 144.37
531.9 144.39
531.8 144.42
531.7 144.44
531.6 144.46
531.5 144.49
531.4 144.51
531.3 144.54
531.2 144.56
531.1 144.58
531.0 144.61
530.9 144.63
530.8 144.66
530.7 144.68
530.6 144.71
530.5 144.73
530.4 144.75
530.3 144.78
530.2 144.8
530.1 144.83
530.0 144.85
529.9 144.87
529.8 144.9
529.7 144.92
529.6 144.95
529.5 144.97
529.4 144.99
529.3 145.02
529.2 145.04
529.1 145.07
529.0 145.09
528.9 145.11
528.8 145.14
528.7 145.16
528.6 145.19
528.5 145.21
528.4 145.23
528.3 145.26
528.2 145.28
528.1 145.31
528.0 145.33
527.9 145.35
527.8 145.38
527.7 145.4
527.6 145.43
527.5 145.45
527.4 145.48
527.3 145.5
527.2 145.52
527.1 145.55
527.0 145.57
526.9 145.6
526.8 145.62
526.7 145.64
526.6 145.67
526.5 145.69
526.4 145.72
526.3 145.74
526.2 145.76
526.1 145.79
526.0 145.81
525.9 145.84
525.8 145.86
525.7 145.88
525.6 145.91
525.5 145.93
525.4 145.96
525.3 145.98
525.2 146.0
525.1 146.03
525.0 146.05
524.9 146.08
524.8 146.1
524.7 146.12
524.6 146.15
524.5 146.17
524.4 146.2
524.3 146.22
524.2 146.25
524.1 146.27
524.0 146.29
523.9 146.32
523.8 146.34
523.7 146.37
523.6 146.39
523.5 146.41
523.4 146.44
523.3 146.46
523.2 146.49
523.1 146.51
523.0 146.53
522.9 146.56
522.8 146.58
522.7 146.61
522.6 146.63
522.5 146.65
522.4 146.68
522.3 146.7
522.2 146.73
522.1 146.75
522.0 146.77
521.9 146.8
521.8 146.82
521.7 146.85
521.6 146.87
521.5 146.89
521.4 146.92
521.3 146.94
521.2 146.97
521.1 146.99
521.0 147.02
520.9 147.04
520.8 147.06
520.7 147.09
520.6 147.11
520.5 147.14
520.4 147.16
520.3 147.18
520.2 147.21
520.1 147.23
520.0 147.26
519.9 147.28
519.8 147.3
519.7 147.33
519.6 147.35
519.5 147.38
519.4 147.4
519.3 147.42
519.2 147.45
519.1 147.47
519.0 147.5
518.9 147.52
518.8 147.54
518.7 147.57
518.6 147.59
518.5 147.62
518.4 147.64
518.3 147.66
518.2 147.69
518.1 147.71
518.0 147.74
517.9 147.76
517.8 147.78
517.7 147.81
517.6 147.83
517.5 147.86
517.4 147.88
517.3 147.91
517.2 147.93
517.1 147.95
517.0 147.98
516.9 148.0
516.8 148.03
516.7 148.05
516.6 148.07
516.5 148.1
516.4 148.12
516.3 148.15
516.2 148.17
516.1 148.19
516.0 148.22
515.9 148.24
515.8 148.27
515.7 148.29
515.6 148.31
515.5 148.34
515.4 148.36
515.3 148.39
515.2 148.41
515.1 148.43
515.0 148.46
514.9 148.48
514.8 148.51
514.7 148.53
514.6 148.55
514.5 148.58
514.4 148.6
514.3 148.63
514.2 148.65
514.1 148.68
514.0 148.7
513.9 148.72
513.8 148.75
513.7 148.77
513.6 148.8
513.5 148.82
513.4 148.84
513.3 148.87
513.2 148.89
513.1 148.92
513.0 148.94
512.9 148.96
512.8 148.99
512.7 149.01
512.6 149.04
512.5 149.06
512.4 149.08
512.3 149.11
512.2 149.13
512.1 149.16
512.0 149.18
511.9 149.2
511.8 149.23
511.7 149.25
511.6 149.28
511.5 149.3
511.4 149.32
511.3 149.35
511.2 149.37
511.1 149.4
511.0 149.42
510.9 149.45
510.8 149.47
510.7 149.49
510.6 149.52
510.5 149.54
510.4 149.57
510.3 149.59
510.2 149.61
510.1 149.64
510.0 149.66
509.9 149.69
509.8 149.71
509.7 149.73
509.6 149.76
509.5 149.78
509.4 149.81
509.3 149.83
509.2 149.85
509.1 149.88
509.0 149.9
508.9 149.93
508.8 149.95
508.7 149.97
508.6 150.0
508.5 150.02
508.4 150.05
508.3 150.07
508.2 150.09
508.1 150.12
508.0 150.14
507.9 150.17
507.8 150.19
507.7 150.22
507.6 150.24
507.5 150.26
507.4 150.29
507.3 150.31
507.2 150.34
507.1 150.36
507.0 150.38
506.9 150.41
506.8 150.43
506.7 150.46
506.6 150.48
506.5 150.5
506.4 150.53
506.3 150.55
506.2 150.58
506.1 150.6
506.0 150.62
505.9 150.65
505.8 150.67
505.7 150.7
505.6 150.72
505.5 150.74
505.4 150.77
505.3 150.79
505.2 150.82
505.1 150.84
505.0 150.86
504.9 150.89
504.8 150.91
504.7 150.94
504.6 150.96
504.5 150.98
504.4 151.01
504.3 151.03
504.2 151.06
504.1 151.08
504.0 151.11
503.9 151.13
503.8 151.15
503.7 151.18
503.6 151.2
503.5 151.23
503.4 151.25
503.3 151.27
503.2 151.3
503.1 151.32
503.0 151.35
502.9 151.37
502.8 151.39
502.7 151.42
502.6 151.44
502.5 151.47
502.4 151.49
502.3 151.51
502.2 151.54
502.1 151.56
502.0 151.59
501.9 151.61
501.8 151.63
501.7 151.66
501.6 151.68
501.5 151.71
501.4 151.73
501.3 151.75
501.2 151.78
501.1 151.8
501.0 151.83
500.9 151.85
500.8 151.88
500.7 151.9
500.6 151.92
500.5 151.95
500.4 151.97
500.3 152.0
500.2 152.02
500.1 152.04
500.0 152.07
499.9 152.09
499.8 152.12
499.7 152.14
499.6 152.16
499.5 152.19
499.4 152.21
499.3 152.24
499.2 152.26
499.1 152.28
499.0 152.31
498.9 152.33
498.8 152.36
498.7 152.38
498.6 152.4
498.5 152.43
498.4 152.45
498.3 152.48
498.2 152.5
498.1 152.52
498.0 152.55
497.9 152.57
497.8 152.6
497.7 152.62
497.6 152.65
497.5 152.67
497.4 152.69
497.3 152.72
497.2 152.74
497.1 152.77
497.0 152.79
496.9 152.81
496.8 152.84
496.7 152.86
496.6 152.89
496.5 152.91
496.4 152.93
496.3 152.96
496.2 152.98
496.1 153.01
496.0 153.03
495.9 153.05
495.8 153.08
495.7 153.1
495.6 153.13
495.5 153.15
495.4 153.17
495.3 153.2
495.2 153.22
495.1 153.25
495.0 153.27
494.9 153.29
494.8 153.32
494.7 153.34
494.6 153.37
494.5 153.39
494.4 153.42
494.3 153.44
494.2 153.46
494.1 153.49
494.0 153.51
493.9 153.54
493.8 153.56
493.7 153.58
493.6 153.61
493.5 153.63
493.4 153.66
493.3 153.68
493.2 153.7
493.1 153.73
493.0 153.75
492.9 153.78
492.8 153.8
492.7 153.82
492.6 153.85
492.5 153.87
492.4 153.9
492.3 153.92
492.2 153.94
492.1 153.97
492.0 153.99
491.9 154.02
491.8 154.04
491.7 154.06
491.6 154.09
491.5 154.11
491.4 154.14
491.3 154.16
491.2 154.18
491.1 154.21
491.0 154.23
490.9 154.26
490.8 154.28
490.7 154.31
490.6 154.33
490.5 154.35
490.4 154.38
490.3 154.4
490.2 154.43
490.1 154.45
490.0 154.47
489.9 154.5
489.8 154.52
489.7 154.55
489.6 154.57
489.5 154.59
489.4 154.62
489.3 154.64
489.2 154.67
489.1 154.69
489.0 154.71
488.9 154.74
488.8 154.76
488.7 154.79
488.6 154.81
488.5 154.83
488.4 154.86
488.3 154.88
488.2 154.91
488.1 154.93
488.0 154.95
487.9 154.98
487.8 155.0
487.7 155.03
487.6 155.05
487.5 155.08
487.4 155.1
487.3 155.12
487.2 155.15
487.1 155.17
487.0 155.2
486.9 155.22
486.8 155.24
486.7 155.27
486.6 155.29
486.5 155.32
486.4 155.34
486.3 155.36
486.2 155.39
486.1 155.41
486.0 155.44
485.9 155.46
485.8 155.48
485.7 155.51
485.6 155.53
485.5 155.56
485.4 155.58
485.3 155.6
485.2 155.63
485.1 155.65
485.0 155.68
484.9 155.7
484.8 155.72
484.7 155.75
484.6 155.77
484.5 155.8
484.4 155.82
484.3 155.85
484.2 155.87
484.1 155.89
484.0 155.92
483.9 155.94
483.8 155.97
483.7 155.99
483.6 156.01
483.5 156.04
483.4 156.06
483.3 156.09
483.2 156.11
483.1 156.13
483.0 156.16
482.9 156.18
482.8 156.21
482.7 156.23
482.6 156.25
482.5 156.28
482.4 156.3
482.3 156.33
482.2 156.35
482.1 156.37
482.0 156.4
481.9 156.42
481.8 156.45
481.7 156.47
481.6 156.49
481.5 156.52
481.4 156.54
481.3 156.57
481.2 156.59
481.1 156.62
481.0 156.64
480.9 156.66
480.8 156.69
480.7 156.71
480.6 156.74
480.5 156.76
480.4 156.78
480.3 156.81
480.2 156.83
480.1 156.86
480.0 156.88
479.9 156.9
479.8 156.93
479.7 156.95
479.6 156.98
479.5 157.0
479.4 157.02
479.3 157.05
479.2 157.07
479.1 157.1
479.0 157.12
478.9 157.14
478.8 157.17
478.7 157.19
478.6 157.22
478.5 157.24
478.4 157.26
478.3 157.29
478.2 157.31
478.1 157.34
478.0 157.36
477.9 157.38
477.8 157.41
477.7 157.43
477.6 157.46
477.5 157.48
477.4 157.51
477.3 157.53
477.2 157.55
477.1 157.58
477.0 157.6
476.9 157.63
476.8 157.65
476.7 157.67
476.6 157.7
476.5 157.72
476.4 157.75
476.3 157.77
476.2 157.79
476.1 157.82
476.0 157.84
475.9 157.87
475.8 157.89
475.7 157.91
475.6 157.94
475.5 157.96
475.4 157.99
475.3 158.01
475.2 158.03
475.1 158.06
475.0 158.08
474.9 158.11
474.8 158.13
474.7 158.15
474.6 158.18
474.5 158.2
474.4 158.23
474.3 158.25
474.2 158.28
474.1 158.3
474.0 158.32
473.9 158.35
473.8 158.37
473.7 158.4
473.6 158.42
473.5 158.44
473.4 158.47
473.3 158.49
473.2 158.52
473.1 158.54
473.0 158.56
472.9 158.59
472.8 158.61
472.7 158.64
472.6 158.66
472.5 158.68
472.4 158.71
472.3 158.73
472.2 158.76
472.1 158.78
472.0 158.8
471.9 158.83
471.8 158.85
471.7 158.88
471.6 158.9
471.5 158.92
471.4 158.95
471.3 158.97
471.2 159.0
471.1 159.02
471.0 159.05
470.9 159.07
470.8 159.09
470.7 159.12
470.6 159.14
470.5 159.17
470.4 159.19
470.3 159.21
470.2 159.24
470.1 159.26
470.0 159.29
469.9 159.31
469.8 159.33
469.7 159.36
469.6 159.38
469.5 159.41
469.4 159.43
469.3 159.45
469.2 159.48
469.1 159.5
469.0 159.53
468.9 159.55
468.8 159.57
468.7 159.6
468.6 159.62
468.5 159.65
468.4 159.67
468.3 159.69
468.2 159.72
468.1 159.74
468.0 159.77
467.9 159.79
467.8 159.82
467.7 159.84
467.6 159.86
467.5 159.89
467.4 159.91
467.3 159.94
467.2 159.96
467.1 159.98
467.0 160.01
466.9 160.03
466.8 160.06
466.7 160.08
466.6 160.1
466.5 160.13
466.4 160.15
466.3 160.18
466.2 160.2
466.1 160.22
466.0 160.25
465.9 160.27
465.8 160.3
465.7 160.32
465.6 160.34
465.5 160.37
465.4 160.39
465.3 160.42
465.2 160.44
465.1 160.46
465.0 160.49
464.9 160.51
464.8 160.54
464.7 160.56
464.6 160.58
464.5 160.61
464.4 160.63
464.3 160.66
464.2 160.68
464.1 160.71
464.0 160.73
463.9 160.75
463.8 160.78
463.7 160.8
463.6 160.83
463.5 160.85
463.4 160.87
463.3 160.9
463.2 160.92
463.1 160.95
463.0 160.97
462.9 160.99
462.8 161.02
462.7 161.04
462.6 161.07
462.5 161.09
462.4 161.11
462.3 161.14
462.2 161.16
462.1 161.19
462.0 161.21
461.9 161.23
461.8 161.26
461.7 161.28
461.6 161.31
461.5 161.33
461.4 161.35
461.3 161.38
461.2 161.4
461.1 161.43
461.0 161.45
460.9 161.48
460.8 161.5
460.7 161.52
460.6 161.55
460.5 161.57
460.4 161.6
460.3 161.62
460.2 161.64
460.1 161.67
460.0 161.69
459.9 161.72
459.8 161.74
459.7 161.76
459.6 161.79
459.5 161.81
459.4 161.84
459.3 161.86
459.2 161.88
459.1 161.91
459.0 161.93
458.9 161.96
458.8 161.98
458.7 162.0
458.6 162.03
458.5 162.05
458.4 162.08
458.3 162.1
458.2 162.12
458.1 162.15
458.0 162.17
457.9 162.2
457.8 162.22
457.7 162.25
457.6 162.27
457.5 162.29
457.4 162.32
457.3 162.34
457.2 162.37
457.1 162.39
457.0 162.41
456.9 162.44
456.8 162.46
456.7 162.49
456.6 162.51
456.5 162.53
456.4 162.56
456.3 162.58
456.2 162.61
456.1 162.63
456.0 162.65
455.9 162.68
455.8 162.7
455.7 162.73
455.6 162.75
455.5 162.77
455.4 162.8
455.3 162.82
455.2 162.85
455.1 162.87
455.0 162.89
454.9 162.92
454.8 162.94
454.7 162.97
454.6 162.99
454.5 163.02
454.4 163.04
454.3 163.06
454.2 163.09
454.1 163.11
454.0 163.14
453.9 163.16
453.8 163.18
453.7 163.21
453.6 163.23
453.5 163.26
453.4 163.28
453.3 163.3
453.2 163.33
453.1 163.35
453.0 163.38
452.9 163.4
452.8 163.42
452.7 163.45
452.6 163.47
452.5 163.5
452.4 163.52
452.3 163.54
452.2 163.57
452.1 163.59
452.0 163.62
451.9 163.64
451.8 163.66
451.7 163.69
451.6 163.71
451.5 163.74
451.4 163.76
451.3 163.78
451.2 163.81
451.1 163.83
451.0 163.86
450.9 163.88
450.8 163.91
450.7 163.93
450.6 163.95
450.5 163.98
450.4 164.0
450.3 164.03
450.2 164.05
450.1 164.07
450.0 164.1
449.9 164.12
449.8 164.15
449.7 164.17
449.6 164.19
449.5 164.22
449.4 164.24
449.3 164.27
449.2 164.29
449.1 164.31
449.0 164.34
448.9 164.36
448.8 164.39
448.7 164.41
448.6 164.43
448.5 164.46
448.4 164.48
448.3 164.51
448.2 164.53
448.1 164.55
448.0 164.58
447.9 164.6
447.8 164.63
447.7 164.65
447.6 164.68
447.5 164.7
447.4 164.72
447.3 164.75
447.2 164.77
447.1 164.8
447.0 164.82
446.9 164.84
446.8 164.87
446.7 164.89
446.6 164.92
446.5 164.94
446.4 164.96
446.3 164.99
446.2 165.01
446.1 165.04
446.0 165.06
445.9 165.08
445.8 165.11
445.7 165.13
445.6 165.16
445.5 165.18
445.4 165.2
445.3 165.23
445.2 165.25
445.1 165.28
445.0 165.3
444.9 165.32
444.8 165.35
444.7 165.37
444.6 165.4
444.5 165.42
444.4 165.45
444.3 165.47
444.2 165.49
444.1 165.52
444.0 165.54
443.9 165.57
443.8 165.59
443.7 165.61
443.6 165.64
443.5 165.66
443.4 165.69
443.3 165.71
443.2 165.73
443.1 165.76
443.0 165.78
442.9 165.81
442.8 165.83
442.7 165.85
442.6 165.88
442.5 165.9
442.4 165.93
442.3 165.95
442.2 165.97
442.1 166.0
442.0 166.02
441.9 166.05
441.8 166.07
441.7 166.09
441.6 166.12
441.5 166.14
441.4 166.17
441.3 166.19
441.2 166.22
441.1 166.24
441.0 166.26
440.9 166.29
440.8 166.31
440.7 166.34
440.6 166.36
440.5 166.38
440.4 166.41
440.3 166.43
440.2 166.46
440.1 166.48
440.0 166.5
439.9 166.53
439.8 166.55
439.7 166.58
439.6 166.6
439.5 166.62
439.4 166.65
439.3 166.67
439.2 166.7
439.1 166.72
439.0 166.74
438.9 166.77
438.8 166.79
438.7 166.82
438.6 166.84
438.5 166.86
438.4 166.89
438.3 166.91
438.2 166.94
438.1 166.96
438.0 166.98
437.9 167.01
437.8 167.03
437.7 167.06
437.6 167.08
437.5 167.11
437.4 167.13
437.3 167.15
437.2 167.18
437.1 167.2
437.0 167.23
436.9 167.25
436.8 167.27
436.7 167.3
436.6 167.32
436.5 167.35
436.4 167.37
436.3 167.39
436.2 167.42
436.1 167.44
436.0 167.47
435.9 167.49
435.8 167.51
435.7 167.54
435.6 167.56
435.5 167.59
435.4 167.61
435.3 167.63
435.2 167.66
435.1 167.68
435.0 167.71
434.9 167.73
434.8 167.75
434.7 167.78
434.6 167.8
434.5 167.83
434.4 167.85
434.3 167.88
434.2 167.9
434.1 167.92
434.0 167.95
433.9 167.97
433.8 168.0
433.7 168.02
433.6 168.04
433.5 168.07
433.4 168.09
433.3 168.12
433.2 168.14
433.1 168.16
433.0 168.19
432.9 168.21
432.8 168.24
432.7 168.26
432.6 168.28
432.5 168.31
432.4 168.33
432.3 168.36
432.2 168.38
432.1 168.4
432.0 168.43
431.9 168.45
431.8 168.48
431.7 168.5
431.6 168.52
431.5 168.55
431.4 168.57
431.3 168.6
431.2 168.62
431.1 168.65
431.0 168.67
430.9 168.69
430.8 168.72
430.7 168.74
430.6 168.77
430.5 168.79
430.4 168.81
430.3 168.84
430.2 168.86
430.1 168.89
430.0 168.91
429.9 168.93
429.8 168.96
429.7 168.98
429.6 169.01
429.5 169.03
429.4 169.05
429.3 169.08
429.2 169.1
429.1 169.13
429.0 169.15
428.9 169.17
428.8 169.2
428.7 169.22
428.6 169.25
428.5 169.27
428.4 169.29
428.3 169.32
428.2 169.34
428.1 169.37
428.0 169.39
427.9 169.41
427.8 169.44
427.7 169.46
427.6 169.49
427.5 169.51
427.4 169.53
427.3 169.56
427.2 169.58
427.1 169.61
427.0 169.63
426.9 169.66
426.8 169.68
426.7 169.7
426.6 169.73
426.5 169.75
426.4 169.78
426.3 169.8
426.2 169.82
426.1 169.85
426.0 169.87
425.9 169.9
425.8 169.92
425.7 169.94
425.6 169.97
425.5 169.99
425.4 170.02
425.3 170.04
425.2 170.06
425.1 170.09
425.0 170.11
424.9 170.14
424.8 170.16
424.7 170.18
424.6 170.21
424.5 170.23
424.4 170.26
424.3 170.28
424.2 170.31
424.1 170.33
424.0 170.35
423.9 170.38
423.8 170.4
423.7 170.43
423.6 170.45
423.5 170.47
423.4 170.5
423.3 170.52
423.2 170.55
423.1 170.57
423.0 170.6
422.9 170.62
422.8 170.64
422.7 170.67
422.6 170.69
422.5 170.72
422.4 170.74
422.3 170.76
422.2 170.79
422.1 170.81
422.0 170.84
421.9 170.86
421.8 170.89
421.7 170.91
421.6 170.93
421.5 170.96
421.4 170.98
421.3 171.01
421.2 171.03
421.1 171.05
421.0 171.08
420.9 171.1
420.8 171.13
420.7 171.15
420.6 171.17
420.5 171.2
420.4 171.22
420.3 171.25
420.2 171.27
420.1 171.29
420.0 171.32
419.9 171.34
419.8 171.37
419.7 171.39
419.6 171.41
419.5 171.44
419.4 171.46
419.3 171.49
419.2 171.51
419.1 171.53
419.0 171.56
418.9 171.58
418.8 171.6
418.7 171.63
418.6 171.65
418.5 171.67
418.4 171.7
418.3 171.72
418.2 171.74
418.1 171.77
418.0 171.79
417.9 171.82
417.8 171.84
417.7 171.86
417.6 171.89
417.5 171.91
417.4 171.93
417.3 171.96
417.2 171.98
417.1 172.0
417.0 172.03
416.9 172.05
416.8 172.07
416.7 172.1
416.6 172.12
416.5 172.14
416.4 172.17
416.3 172.19
416.2 172.22
416.1 172.24
416.0 172.26
415.9 172.29
415.8 172.31
415.7 172.34
415.6 172.36
415.5 172.38
415.4 172.41
415.3 172.43
415.2 172.46
415.1 172.48
415.0 172.51
414.9 172.53
414.8 172.56
414.7 172.58
414.6 172.61
414.5 172.64
414.4 172.66
414.3 172.69
414.2 172.71
414.1 172.74
414.0 172.77
413.9 172.79
413.8 172.82
413.7 172.85
413.6 172.88
413.5 172.9
413.4 172.93
413.3 172.96
413.2 172.99
413.1 173.02
413.0 173.05
412.9 173.08
412.8 173.11
412.7 173.14
412.6 173.17
412.5 173.2
412.4 173.23
412.3 173.26
412.2 173.29
412.1 173.32
412.0 173.35
411.9 173.38
411.8 173.41
411.7 173.45
411.6 173.48
411.5 173.51
411.4 173.54
411.3 173.58
411.2 173.61
411.1 173.64
411.0 173.67
410.9 173.71
410.8 173.74
410.7 173.77
410.6 173.81
410.5 173.84
410.4 173.88
410.3 173.91
410.2 173.94
410.1 173.98
410.0 174.01
409.9 174.05
409.8 174.08
409.7 174.12
409.6 174.15
409.5 174.18
409.4 174.22
409.3 174.25
409.2 174.29
409.1 174.32
409.0 174.36
408.9 174.39
408.8 174.43
408.7 174.46
408.6 174.5
408.5 174.53
408.4 174.57
408.3 174.6
408.2 174.64
408.1 174.67
408.0 174.71
407.9 174.74
407.8 174.78
407.7 174.81
407.6 174.84
407.5 174.88
407.4 174.91
407.3 174.95
407.2 174.98
407.1 175.02
407.0 175.05
406.9 175.09
406.8 175.12
406.7 175.16
406.6 175.19
406.5 175.23
406.4 175.26
406.3 175.29
406.2 175.33
406.1 175.36
406.0 175.4
405.9 175.43
405.8 175.47
405.7 175.5
405.6 175.53
405.5 175.57
405.4 175.6
405.3 175.64
405.2 175.67
405.1 175.71
405.0 175.74
404.9 175.77
404.8 175.81
404.7 175.84
404.6 175.88
404.5 175.91
404.4 175.94
404.3 175.98
404.2 176.01
404.1 176.05
404.0 176.08
403.9 176.12
403.8 176.15
403.7 176.18
403.6 176.22
403.5 176.25
403.4 176.29
403.3 176.32
403.2 176.35
403.1 176.39
403.0 176.42
402.9 176.46
402.8 176.49
402.7 176.52
402.6 176.56
402.5 176.59
402.4 176.63
402.3 176.66
402.2 176.7
402.1 176.73
402.0 176.76
401.9 176.8
401.8 176.83
401.7 176.87
401.6 176.9
401.5 176.93
401.4 176.97
401.3 177.0
401.2 177.04
401.1 177.07
401.0 177.11
400.9 177.14
400.8 177.17
400.7 177.21
400.6 177.24
400.5 177.28
400.4 177.31
400.3 177.34
400.2 177.38
400.1 177.41
400.0 177.45
399.9 177.48
399.8 177.52
399.7 177.55
399.6 177.58
399.5 177.62
399.4 177.65
399.3 177.69
399.2 177.72
399.1 177.75
399.0 177.79
398.9 177.82
398.8 177.86
398.7 177.89
398.6 177.93
398.5 177.96
398.4 177.99
398.3 178.03
398.2 178.06
398.1 178.1
398.0 178.13
397.9 178.17
397.8 178.2
397.7 178.23
397.6 178.27
397.5 178.3
397.4 178.34
397.3 178.37
397.2 178.41
397.1 178.44
397.0 178.47
396.9 178.51
396.8 178.54
396.7 178.58
396.6 178.61
396.5 178.64
396.4 178.68
396.3 178.71
396.2 178.75
396.1 178.78
396.0 178.82
395.9 178.85
395.8 178.88
395.7 178.92
395.6 178.95
395.5 178.99
395.4 179.02
395.3 179.06
395.2 179.09
395.1 179.12
395.0 179.16
394.9 179.19
394.8 179.23
394.7 179.26
394.6 179.29
394.5 179.33
394.4 179.36
394.3 179.4
394.2 179.43
394.1 179.47
394.0 179.5
393.9 179.53
393.8 179.57
393.7 179.6
393.6 179.64
393.5 179.67
393.4 179.71
393.3 179.74
393.2 179.77
393.1 179.81
393.0 179.84
392.9 179.88
392.8 179.91
392.7 179.94
392.6 179.98
392.5 180.01
392.4 180.05
392.3 180.08
392.2 180.12
392.1 180.15
392.0 180.18
391.9 180.22
391.8 180.25
391.7 180.29
391.6 180.32
391.5 180.36
391.4 180.39
391.3 180.42
391.2 180.46
391.1 180.49
391.0 180.53
390.9 180.56
390.8 180.59
390.7 180.63
390.6 180.66
390.5 180.7
390.4 180.73
390.3 180.77
390.2 180.8
390.1 180.83
390.0 180.87
389.9 180.9
389.8 180.94
389.7 180.97
389.6 181.01
389.5 181.04
389.4 181.07
389.3 181.11
389.2 181.14
389.1 181.18
389.0 181.21
388.9 181.24
388.8 181.28
388.7 181.31
388.6 181.35
388.5 181.38
388.4 181.42
388.3 181.45
388.2 181.48
388.1 181.52
388.0 181.55
387.9 181.59
387.8 181.62
387.7 181.66
387.6 181.69
387.5 181.72
387.4 181.76
387.3 181.79
387.2 181.83
387.1 181.86
387.0 181.89
386.9 181.93
386.8 181.96
386.7 182.0
386.6 182.03
386.5 182.07
386.4 182.1
386.3 182.13
386.2 182.17
386.1 182.2
386.0 182.24
385.9 182.27
385.8 182.31
385.7 182.34
385.6 182.37
385.5 182.41
385.4 182.44
385.3 182.48
385.2 182.51
385.1 182.54
385.0 182.58
384.9 182.61
384.8 182.65
384.7 182.68
384.6 182.72
384.5 182.75
384.4 182.78
384.3 182.82
384.2 182.85
384.1 182.89
384.0 182.92
383.9 182.96
383.8 182.99
383.7 183.02
383.6 183.06
383.5 183.09
383.4 183.13
383.3 183.16
383.2 183.19
383.1 183.23
383.0 183.26
382.9 183.3
382.8 183.33
382.7 183.37
382.6 183.4
382.5 183.43
382.4 183.47
382.3 183.5
382.2 183.54
382.1 183.57
382.0 183.61
381.9 183.64
381.8 183.67
381.7 183.71
381.6 183.74
381.5 183.78
381.4 183.81
381.3 183.84
381.2 183.88
381.1 183.91
381.0 183.95
380.9 183.98
380.8 184.02
380.7 184.05
380.6 184.08
380.5 184.12
380.4 184.15
380.3 184.19
380.2 184.22
380.1 184.26
380.0 184.29
379.9 184.32
379.8 184.36
379.7 184.39
379.6 184.43
379.5 184.46
379.4 184.49
379.3 184.53
379.2 184.56
379.1 184.6
379.0 184.63
378.9 184.67
378.8 184.7
378.7 184.73
378.6 184.77
378.5 184.8
378.4 184.84
378.3 184.87
378.2 184.91
378.1 184.94
378.0 184.97
377.9 185.01
377.8 185.04
377.7 185.08
377.6 185.11
377.5 185.14
377.4 185.18
377.3 185.21
377.2 185.25
377.1 185.28
377.0 185.32
376.9 185.35
376.8 185.38
376.7 185.42
376.6 185.45
376.5 185.49
376.4 185.52
376.3 185.56
376.2 185.59
376.1 185.62
376.0 185.66
375.9 185.69
375.8 185.73
375.7 185.76
375.6 185.79
375.5 185.83
375.4 185.86
375.3 185.9
375.2 185.93
375.1 185.97
375.0 186.0
374.9 186.03
374.8 186.07
374.7 186.1
374.6 186.14
374.5 186.17
374.4 186.21
374.3 186.24
374.2 186.27
374.1 186.31
374.0 186.34
373.9 186.38
373.8 186.41
373.7 186.44
373.6 186.48
373.5 186.51
373.4 186.55
373.3 186.58
373.2 186.62
373.1 186.65
373.0 186.68
372.9 186.72
372.8 186.75
372.7 186.79
372.6 186.82
372.5 186.86
372.4 186.89
372.3 186.92
372.2 186.96
372.1 186.99
372.0 187.03
371.9 187.06
371.8 187.09
371.7 187.13
371.6 187.16
371.5 187.2
371.4 187.23
371.3 187.27
371.2 187.3
371.1 187.33
371.0 187.37
370.9 187.4
370.8 187.44
370.7 187.47
370.6 187.51
370.5 187.54
370.4 187.57
370.3 187.61
370.2 187.64
370.1 187.68
370.0 187.71
369.9 187.74
369.8 187.78
369.7 187.81
369.6 187.85
369.5 187.88
369.4 187.92
369.3 187.95
369.2 187.98
369.1 188.02
369.0 188.05
368.9 188.09
368.8 188.12
368.7 188.16
368.6 188.19
368.5 188.22
368.4 188.26
368.3 188.29
368.2 188.33
368.1 188.36
368.0 188.39
367.9 188.43
367.8 188.46
367.7 188.5
367.6 188.53
367.5 188.57
367.4 188.6
367.3 188.63
367.2 188.67
367.1 188.7
367.0 188.74
366.9 188.77
366.8 188.81
366.7 188.84
366.6 188.87
366.5 188.91
366.4 188.94
366.3 188.98
366.2 189.01
366.1 189.04
366.0 189.08
365.9 189.11
365.8 189.15
365.7 189.18
365.6 189.22
365.5 189.25
365.4 189.28
365.3 189.32
365.2 189.35
365.1 189.39
365.0 189.42
364.9 189.46
364.8 189.49
364.7 189.52
364.6 189.56
364.5 189.59
364.4 189.63
364.3 189.66
364.2 189.69
364.1 189.73
364.0 189.76
363.9 189.8
363.8 189.83
363.7 189.87
363.6 189.9
363.5 189.93
363.4 189.97
363.3 190.0
363.2 190.04
363.1 190.07
363.0 190.11
362.9 190.14
362.8 190.17
362.7 190.21
362.6 190.24
362.5 190.28
362.4 190.31
362.3 190.34
362.2 190.38
362.1 190.41
362.0 190.45
361.9 190.48
361.8 190.52
361.7 190.55
361.6 190.58
361.5 190.62
361.4 190.65
361.3 190.69
361.2 190.72
361.1 190.76
361.0 190.79
360.9 190.82
360.8 190.86
360.7 190.89
360.6 190.93
360.5 190.96
360.4 190.99
360.3 191.03
360.2 191.06
360.1 191.1
360.0 191.13
359.9 191.17
359.8 191.2
359.7 191.23
359.6 191.27
359.5 191.3
359.4 191.34
359.3 191.37
359.2 191.41
359.1 191.44
359.0 191.47
358.9 191.51
358.8 191.54
358.7 191.58
358.6 191.61
358.5 191.64
358.4 191.68
358.3 191.71
358.2 191.75
358.1 191.78
358.0 191.82
357.9 191.85
357.8 191.88
357.7 191.92
357.6 191.95
357.5 191.99
357.4 192.02
357.3 192.06
357.2 192.09
357.1 192.12
357.0 192.16
356.9 192.19
356.8 192.23
356.7 192.26
356.6 192.29
356.5 192.33
356.4 192.36
356.3 192.4
356.2 192.43
356.1 192.47
356.0 192.5
355.9 192.53
355.8 192.57
355.7 192.6
355.6 192.64
355.5 192.67
355.4 192.71
355.3 192.74
355.2 192.77
355.1 192.81
355.0 192.84
354.9 192.88
354.8 192.91
354.7 192.94
354.6 192.98
354.5 193.01
354.4 193.05
354.3 193.08
354.2 193.12
354.1 193.15
354.0 193.18
353.9 193.22
353.8 193.25
353.7 193.29
353.6 193.32
353.5 193.36
353.4 193.39
353.3 193.42
353.2 193.46
353.1 193.49
353.0 193.53
352.9 193.56
352.8 193.59
352.7 193.63
352.6 193.66
352.5 193.7
352.4 193.73
352.3 193.77
352.2 193.8
352.1 193.83
352.0 193.87
351.9 193.9
351.8 193.94
351.7 193.97
351.6 194.01
351.5 194.04
351.4 194.07
351.3 194.11
351.2 194.14
351.1 194.18
351.0 194.21
350.9 194.24
350.8 194.28
350.7 194.31
350.6 194.35
350.5 194.38
350.4 194.42
350.3 194.45
350.2 194.48
350.1 194.52
350.0 194.55
349.9 194.59
349.8 194.62
349.7 194.66
349.6 194.69
349.5 194.72
349.4 194.76
349.3 194.79
349.2 194.83
349.1 194.86
349.0 194.89
348.9 194.93
348.8 194.96
348.7 195.0
348.6 195.03
348.5 195.07
348.4 195.1
348.3 195.13
348.2 195.17
348.1 195.2
348.0 195.24
347.9 195.27
347.8 195.31
347.7 195.34
347.6 195.37
347.5 195.41
347.4 195.44
347.3 195.48
347.2 195.51
347.1 195.54
347.0 195.58
346.9 195.61
346.8 195.65
346.7 195.68
346.6 195.72
346.5 195.75
346.4 195.78
346.3 195.82
346.2 195.85
346.1 195.89
346.0 195.92
345.9 195.96
345.8 195.99
345.7 196.02
345.6 196.06
345.5 196.09
345.4 196.13
345.3 196.16
345.2 196.19
345.1 196.23
345.0 196.26
344.9 196.3
344.8 196.33
344.7 196.37
344.6 196.4
344.5 196.43
344.4 196.47
344.3 196.5
344.2 196.54
344.1 196.57
344.0 196.61
343.9 196.64
343.8 196.67
343.7 196.71
343.6 196.74
343.5 196.78
343.4 196.81
343.3 196.84
343.2 196.88
343.1 196.91
343.0 196.95
342.9 196.98
342.8 197.02
342.7 197.05
342.6 197.08
342.5 197.12
342.4 197.15
342.3 197.19
342.2 197.22
342.1 197.26
342.0 197.29
341.9 197.32
341.8 197.36
341.7 197.39
341.6 197.43
341.5 197.46
341.4 197.49
341.3 197.53
341.2 197.56
341.1 197.6
341.0 197.63
340.9 197.67
340.8 197.7
340.7 197.73
340.6 197.77
340.5 197.8
340.4 197.84
340.3 197.87
340.2 197.91
340.1 197.94
340.0 197.97
339.9 198.01
339.8 198.04
339.7 198.08
339.6 198.11
339.5 198.14
339.4 198.18
339.3 198.21
339.2 198.25
339.1 198.28
339.0 198.32
338.9 198.35
338.8 198.38
338.7 198.42
338.6 198.45
338.5 198.49
338.4 198.52
338.3 198.56
338.2 198.59
338.1 198.62
338.0 198.66
337.9 198.69
337.8 198.73
337.7 198.76
337.6 198.79
337.5 198.83
337.4 198.86
337.3 198.9
337.2 198.93
337.1 198.97
337.0 199.0
336.9 199.03
336.8 199.07
336.7 199.1
336.6 199.14
336.5 199.17
336.4 199.21
336.3 199.24
336.2 199.27
336.1 199.31
336.0 199.34
335.9 199.38
335.8 199.41
335.7 199.44
335.6 199.48
335.5 199.51
335.4 199.55
335.3 199.58
335.2 199.62
335.1 199.65
335.0 199.68
334.9 199.72
334.8 199.75
334.7 199.79
334.6 199.82
334.5 199.86
334.4 199.89
334.3 199.92
334.2 199.96
334.1 199.99
334.0 200.03
333.9 200.06
333.8 200.09
333.7 200.13
333.6 200.16
333.5 200.2
333.4 200.23
333.3 200.27
333.2 200.3
333.1 200.33
333.0 200.37
332.9 200.4
332.8 200.44
332.7 200.47
332.6 200.51
332.5 200.54
332.4 200.57
332.3 200.61
332.2 200.64
332.1 200.68
332.0 200.71
331.9 200.74
331.8 200.78
331.7 200.81
331.6 200.85
331.5 200.88
331.4 200.92
331.3 200.95
331.2 200.98
331.1 201.02
331.0 201.05
330.9 201.09
330.8 201.12
330.7 201.16
330.6 201.19
330.5 201.22
330.4 201.26
330.3 201.29
330.2 201.33
330.1 201.36
330.0 201.39
329.9 201.43
329.8 201.46
329.7 201.5
329.6 201.53
329.5 201.57
329.4 201.6
329.3 201.63
329.2 201.67
329.1 201.7
329.0 201.74
328.9 201.77
328.8 201.81
328.7 201.84
328.6 201.87
328.5 201.91
328.4 201.94
328.3 201.98
328.2 202.01
328.1 202.04
328.0 202.08
327.9 202.11
327.8 202.15
327.7 202.18
327.6 202.22
327.5 202.25
327.4 202.28
327.3 202.32
327.2 202.35
327.1 202.39
327.0 202.42
326.9 202.46
326.8 202.49
326.7 202.52
326.6 202.56
326.5 202.59
326.4 202.63
326.3 202.66
326.2 202.69
326.1 202.73
326.0 202.76
325.9 202.8
325.8 202.83
325.7 202.87
325.6 202.9
325.5 202.93
325.4 202.97
325.3 203.0
325.2 203.04
325.1 203.07
325.0 203.11
324.9 203.14
324.8 203.17
324.7 203.21
324.6 203.24
324.5 203.28
324.4 203.31
324.3 203.34
324.2 203.38
324.1 203.41
324.0 203.45
323.9 203.48
323.8 203.52
323.7 203.55
323.6 203.58
323.5 203.62
323.4 203.65
323.3 203.69
323.2 203.72
323.1 203.76
323.0 203.79
322.9 203.82
322.8 203.86
322.7 203.89
322.6 203.93
322.5 203.96
322.4 203.99
322.3 204.03
322.2 204.06
322.1 204.1
322.0 204.13
321.9 204.17
321.8 204.2
321.7 204.23
321.6 204.27
321.5 204.3
321.4 204.34
321.3 204.37
321.2 204.41
321.1 204.44
321.0 204.47
320.9 204.51
320.8 204.54
320.7 204.58
320.6 204.61
320.5 204.64
320.4 204.68
320.3 204.71
320.2 204.75
320.1 204.78
320.0 204.82
319.9 204.85
319.8 204.88
319.7 204.92
319.6 204.95
319.5 204.99
319.4 205.02
319.3 205.05
319.2 205.09
319.1 205.12
319.0 205.16
318.9 205.19
318.8 205.23
318.7 205.26
318.6 205.29
318.5 205.33
318.4 205.36
318.3 205.4
318.2 205.43
318.1 205.46
318.0 205.5
317.9 205.53
317.8 205.57
317.7 205.6
317.6 205.64
317.5 205.67
317.4 205.7
317.3 205.74
317.2 205.77
317.1 205.81
317.0 205.84
316.9 205.87
316.8 205.91
316.7 205.94
316.6 205.98
316.5 206.01
316.4 206.05
316.3 206.08
316.2 206.12
316.1 206.15
316.0 206.18
315.9 206.22
315.8 206.25
315.7 206.29
315.6 206.32
315.5 206.36
315.4 206.39
315.3 206.42
315.2 206.46
315.1 206.49
315.0 206.53
314.9 206.56
314.8 206.6
314.7 206.63
314.6 206.67
314.5 206.7
314.4 206.74
314.3 206.77
314.2 206.8
314.1 206.84
314.0 206.87
313.9 206.91
313.8 206.94
313.7 206.98
313.6 207.01
313.5 207.05
313.4 207.08
313.3 207.12
313.2 207.15
313.1 207.18
313.0 207.22
312.9 207.25
312.8 207.29
312.7 207.32
312.6 207.36
312.5 207.39
312.4 207.43
312.3 207.46
312.2 207.49
312.1 207.53
312.0 207.56
311.9 207.6
311.8 207.63
311.7 207.66
311.6 207.7
311.5 207.73
311.4 207.77
311.3 207.8
311.2 207.83
311.1 207.87
311.0 207.9
310.9 207.93
310.8 207.97
310.7 208.0
310.6 208.03
310.5 208.07
310.4 208.1
310.3 208.13
310.2 208.16
310.1 208.2
310.0 208.23
309.9 208.26
309.8 208.29
309.7 208.33
309.6 208.36
309.5 208.39
309.4 208.42
309.3 208.46
309.2 208.49
309.1 208.52
309.0 208.55
308.9 208.58
308.8 208.62
308.7 208.65
308.6 208.68
308.5 208.71
308.4 208.74
308.3 208.78
308.2 208.81
308.1 208.84
308.0 208.87
307.9 208.9
307.8 208.94
307.7 208.97
307.6 209.0
307.5 209.03
307.4 209.07
307.3 209.1
307.2 209.13
307.1 209.17
307.0 209.2
306.9 209.23
306.8 209.27
306.7 209.3
306.6 209.34
306.5 209.37
306.4 209.41
306.3 209.45
306.2 209.48
306.1 209.52
306.0 209.56
305.9 209.59
305.8 209.63
305.7 209.67
305.6 209.71
305.5 209.75
305.4 209.79
305.3 209.83
305.2 209.87
305.1 209.91
305.0 209.95
304.9 209.99
304.8 210.04
304.7 210.08
304.6 210.12
304.5 210.17
304.4 210.21
304.3 210.26
304.2 210.3
304.1 210.35
304.0 210.39
303.9 210.44
303.8 210.48
303.7 210.53
303.6 210.58
303.5 210.62
303.4 210.67
303.3 210.72
303.2 210.76
303.1 210.81
303.0 210.85
302.9 210.9
302.8 210.94
302.7 210.99
302.6 211.03
302.5 211.07
302.4 211.11
302.3 211.15
302.2 211.19
302.1 211.23
302.0 211.27
301.9 211.3
301.8 211.34
301.7 211.37
301.6 211.4
301.5 211.42
301.4 211.45
301.3 211.47
301.2 211.49
301.1 211.51
301.0 211.52
300.9 211.54
300.8 211.54
300.7 211.55
300.6 211.55
300.5 211.55
300.4 211.54
300.3 211.54
300.2 211.52
300.1 211.5
300.0 211.48
299.9 211.46
299.8 211.43
299.7 211.39
299.6 211.35
299.5 211.31
299.4 211.26
299.3 211.21
299.2 211.15
299.1 211.09
299.0 211.02
298.9 210.95
298.8 210.87
298.7 210.79
298.6 210.7
298.5 210.61
298.4 210.52
298.3 210.42
298.2 210.31
298.1 210.2
298.0 210.09
297.9 209.97
297.8 209.85
297.7 209.72
297.6 209.59
297.5 209.46
297.4 209.32
297.3 209.18
297.2 209.03
297.1 208.88
297.0 208.73
296.9 208.58
296.8 208.42
296.7 208.26
296.6 208.1
296.5 207.94
296.4 207.77
296.3 207.6
296.2 207.43
296.1 207.26
296.0 207.08
295.9 206.91
295.8 206.73
295.7 206.55
295.6 206.37
295.5 206.19
295.4 206.01
295.3 205.82
295.2 205.64
295.1 205.46
295.0 205.27
294.9 205.09
294.8 204.9
294.7 204.72
294.6 204.53
294.5 204.34
294.4 204.16
294.3 203.97
294.2 203.79
294.1 203.6
294.0 203.41
293.9 203.23
293.8 203.04
293.7 202.86
293.6 202.68
293.5 202.49
293.4 202.31
293.3 202.12
293.2 201.94
293.1 201.76
293.0 201.58
292.9 201.4
292.8 201.22
292.7 201.04
292.6 200.86
292.5 200.68
292.4 200.5
292.3 200.32
292.2 200.14
292.1 199.96
292.0 199.79
291.9 199.61
291.8 199.43
291.7 199.26
291.6 199.08
291.5 198.91
291.4 198.73
291.3 198.56
291.2 198.38
291.1 198.21
291.0 198.04
290.9 197.86
290.8 197.69
290.7 197.52
290.6 197.34
290.5 197.17
290.4 197.0
290.3 196.83
290.2 196.66
290.1 196.48
290.0 196.31
289.9 196.14
289.8 195.97
289.7 195.8
289.6 195.63
289.5 195.45
289.4 195.28
289.3 195.11
289.2 194.94
289.1 194.77
289.0 194.6
288.9 194.42
288.8 194.25
288.7 194.08
288.6 193.91
288.5 193.74
288.4 193.57
288.3 193.39
288.2 193.22
288.1 193.05
288.0 192.88
287.9 192.71
287.8 192.53
287.7 192.36
287.6 192.19
287.5 192.02
287.4 191.84
287.3 191.67
287.2 191.5
287.1 191.33
287.0 191.15
286.9 190.98
286.8 190.81
286.7 190.63
286.6 190.46
286.5 190.29
286.4 190.11
286.3 189.94
286.2 189.77
286.1 189.59
286.0 189.42
285.9 189.25
285.8 189.07
285.7 188.9
285.6 188.72
285.5 188.55
285.4 188.38
285.3 188.2
285.2 188.03
285.1 187.85
285.0 187.68
284.9 187.51
284.8 187.33
284.7 187.16
284.6 186.98
284.5 186.81
284.4 186.64
284.3 186.46
284.2 186.29
284.1 186.11
284.0 185.94
283.9 185.77
283.8 185.59
283.7 185.42
283.6 185.24
283.5 185.07
283.4 184.9
283.3 184.72
283.2 184.55
283.1 184.37
283.0 184.2
282.9 184.02
282.8 183.85
282.7 183.68
282.6 183.5
282.5 183.33
282.4 183.15
282.3 182.98
282.2 182.81
282.1 182.63
282.0 182.46
281.9 182.28
281.8 182.11
281.7 181.94
281.6 181.76
281.5 181.59
281.4 181.42
281.3 181.24
281.2 181.07
281.1 180.89
281.0 180.72
280.9 180.55
280.8 180.37
280.7 180.2
280.6 180.02
280.5 179.85
280.4 179.68
280.3 179.5
280.2 179.33
280.1 179.16
280.0 178.98
279.9 178.81
279.8 178.63
279.7 178.46
279.6 178.29
279.5 178.11
279.4 177.94
279.3 177.77
279.2 177.59
279.1 177.42
279.0 177.24
278.9 177.07
278.8 176.9
278.7 176.72
278.6 176.55
278.5 176.38
278.4 176.2
278.3 176.03
278.2 175.86
278.1 175.68
278.0 175.51
277.9 175.33
277.8 175.16
277.7 174.99
277.6 174.81
277.5 174.64
277.4 174.47
277.3 174.29
277.2 174.12
277.1 173.94
277.0 173.77
276.9 173.6
276.8 173.42
276.7 173.25
276.6 173.08
276.5 172.9
276.4 172.73
276.3 172.55
276.2 172.38
276.1 172.21
276.0 172.03
275.9 171.86
275.8 171.69
275.7 171.51
275.6 171.34
275.5 171.16
275.4 170.99
275.3 170.82
275.2 170.64
275.1 170.47
275.0 170.3
274.9 170.12
274.8 169.95
274.7 169.77
274.6 169.6
274.5 169.43
274.4 169.25
274.3 169.08
274.2 168.91
274.1 168.73
274.0 168.56
273.9 168.38
273.8 168.21
273.7 168.04
273.6 167.86
273.5 167.69
273.4 167.51
273.3 167.34
273.2 167.17
273.1 166.99
273.0 166.82
272.9 166.65
272.8 166.47
272.7 166.3
272.6 166.12
272.5 165.95
272.4 165.78
272.3 165.6
272.2 165.43
272.1 165.26
272.0 165.08
271.9 164.91
271.8 164.73
271.7 164.56
271.6 164.39
271.5 164.21
271.4 164.04
271.3 163.87
271.2 163.69
271.1 163.52
271.0 163.34
270.9 163.17
270.8 163.0
270.7 162.82
270.6 162.65
270.5 162.48
270.4 162.3
270.3 162.13
270.2 161.95
270.1 161.78
270.0 161.61
269.9 161.43
269.8 161.26
269.7 161.09
269.6 160.91
269.5 160.74
269.4 160.56
269.3 160.39
269.2 160.22
269.1 160.04
269.0 159.87
268.9 159.7
268.8 159.52
268.7 159.35
268.6 159.17
268.5 159.0
268.4 158.83
268.3 158.65
268.2 158.48
268.1 158.31
268.0 158.13
267.9 157.96
267.8 157.78
267.7 157.61
267.6 157.44
267.5 157.26
267.4 157.09
267.3 156.91
267.2 156.74
267.1 156.57
267.0 156.39
266.9 156.22
266.8 156.05
266.7 155.87
266.6 155.7
266.5 155.52
266.4 155.35
266.3 155.18
266.2 155.0
266.1 154.83
266.0 154.66
265.9 154.48
265.8 154.31
265.7 154.13
265.6 153.96
265.5 153.79
265.4 153.61
265.3 153.44
265.2 153.27
265.1 153.09
265.0 152.92
264.9 152.74
264.8 152.57
264.7 152.4
264.6 152.22
264.5 152.05
264.4 151.88
264.3 151.7
264.2 151.53
264.1 151.35
264.0 151.18
263.9 151.01
263.8 150.83
263.7 150.66
263.6 150.48
263.5 150.31
263.4 150.14
263.3 149.96
263.2 149.79
263.1 149.62
263.0 149.44
262.9 149.27
262.8 149.09
262.7 148.92
262.6 148.75
262.5 148.57
262.4 148.4
262.3 148.23
262.2 148.05
262.1 147.88
262.0 147.7
261.9 147.53
261.8 147.36
261.7 147.18
261.6 147.01
261.5 146.83
261.4 146.66
261.3 146.49
261.2 146.31
261.1 146.14
261.0 145.97
260.9 145.79
260.8 145.62
260.7 145.45
260.6 145.27
260.5 145.1
260.4 144.92
260.3 144.75
260.2 144.58
260.1 144.4
260.0 144.23
259.9 144.06
259.8 143.88
259.7 143.71
259.6 143.54
259.5 143.36
259.4 143.19
259.3 143.01
259.2 142.84
259.1 142.67
259.0 142.49
258.9 142.32
258.8 142.15
258.7 141.97
258.6 141.8
258.5 141.63
258.4 141.45
258.3 141.28
258.2 141.11
258.1 140.93
258.0 140.76
257.9 140.59
257.8 140.41
257.7 140.24
257.6 140.07
257.5 139.89
257.4 139.72
257.3 139.54
257.2 139.37
257.1 139.2
257.0 139.02
256.9 138.85
256.8 138.68
256.7 138.5
256.6 138.33
256.5 138.16
256.4 137.98
256.3 137.81
256.2 137.63
256.1 137.46
256.0 137.29
255.9 137.11
255.8 136.94
255.7 136.76
255.6 136.59
255.5 136.41
255.4 136.24
255.3 136.07
255.2 135.89
255.1 135.72
255.0 135.54
254.9 135.37
254.8 135.19
254.7 135.02
254.6 134.84
254.5 134.67
254.4 134.49
254.3 134.32
254.2 134.14
254.1 133.97
254.0 133.79
253.9 133.62
253.8 133.44
253.7 133.27
253.6 133.09
253.5 132.92
253.4 132.74
253.3 132.56
253.2 132.39
253.1 132.21
253.0 132.04
252.9 131.86
252.8 131.69
252.7 131.51
252.6 131.34
252.5 131.16
252.4 130.99
252.3 130.81
252.2 130.63
252.1 130.46
252.0 130.28
251.9 130.11
251.8 129.94
251.7 129.76
251.6 129.59
251.5 129.41
251.4 129.24
251.3 129.06
251.2 128.89
251.1 128.72
251.0 128.54
250.9 128.37
250.8 128.2
250.7 128.03
250.6 127.85
250.5 127.68
250.4 127.51
250.3 127.34
250.2 127.17
250.1 127.0
250.0 126.83
249.9 126.66
249.8 126.49
249.7 126.32
249.6 126.15
249.5 125.99
249.4 125.82
249.3 125.65
249.2 125.48
249.1 125.32
249.0 125.15
248.9 124.99
248.8 124.82
248.7 124.66
248.6 124.49
248.5 124.33
248.4 124.16
248.3 124.0
248.2 123.83
248.1 123.67
248.0 123.51
247.9 123.34
247.8 123.18
247.7 123.02
247.6 122.85
247.5 122.69
247.4 122.53
247.3 122.36
247.2 122.2
247.1 122.04
247.0 121.87
246.9 121.71
246.8 121.54
246.7 121.37
246.6 121.21
246.5 121.04
246.4 120.87
246.3 120.7
246.2 120.53
246.1 120.35
246.0 120.18
245.9 120.01
245.8 119.83
245.7 119.65
245.6 119.47
245.5 119.29
245.4 119.11
245.3 118.92
245.2 118.73
245.1 118.54
245.0 118.35
244.9 118.16
244.8 117.96
244.7 117.76
244.6 117.56
244.5 117.36
244.4 117.15
244.3 116.94
244.2 116.73
244.1 116.52
244.0 116.3
243.9 116.08
243.8 115.86
243.7 115.63
243.6 115.41
243.5 115.18
243.4 114.94
243.3 114.71
243.2 114.47
243.1 114.23
243.0 113.99
242.9 113.75
242.8 113.51
242.7 113.26
242.6 113.02
242.5 112.77
242.4 112.52
242.3 112.27
242.2 112.02
242.1 111.77
242.0 111.52
241.9 111.28
241.8 111.03
241.7 110.78
241.6 110.54
241.5 110.3
241.4 110.06
241.3 109.83
241.2 109.59
241.1 109.37
241.0 109.14
240.9 108.92
240.8 108.71
240.7 108.5
240.6 108.3
240.5 108.11
240.4 107.92
240.3 107.74
240.2 107.57
240.1 107.4
240.0 107.25
239.9 107.1
239.8 106.96
239.7 106.83
239.6 106.72
239.5 106.61
239.4 106.51
239.3 106.42
239.2 106.34
239.1 106.27
239.0 106.21
238.9 106.15
238.8 106.11
238.7 106.08
238.6 106.05
238.5 106.03
238.4 106.02
238.3 106.01
238.2 106.0
238.1 106.0
238.0 106.0
